p cnf 14 64
3 5 9 0
-3 -5 10 0
5 -7 -9 0
-2 9 13 0
3 4 14 0
-1 4 -10 0
4 9 -13 0
1 2 -8 0
-3 -6 11 0
6 8 13 0
2 8 10 0
2 4 6 0
1 -11 14 0
2 4 11 0
-2 5 -10 0
-3 5 9 0
-7 11 14 0
-2 -5 -12 0
-4 6 12 0
-1 3 6 0
7 -8 14 0
4 -12 14 0
3 -4 -6 0
7 -8 -10 0
-4 6 -13 0
7 -10 -13 0
2 3 4 0
6 10 12 0
-1 -11 14 0
-5 -11 13 0
2 -9 -13 0
-5 -10 11 0
2 -7 -11 0
-8 9 -11 0
3 -6 10 0
7 -9 11 0
1 -3 4 0
-1 -2 -6 0
5 8 -12 0
1 10 14 0
1 -6 11 0
-5 13 -14 0
-3 -4 -9 0
3 11 13 0
-1 6 -12 0
3 -6 -9 0
1 5 -8 0
-2 -12 -14 0
-7 -8 -9 0
4 6 14 0
8 12 14 0
-2 5 11 0
2 5 9 0
-2 -9 -14 0
4 -9 -11 0
-1 -2 8 0
-1 10 14 0
-4 5 12 0
6 10 -13 0
10 -13 14 0
2 -7 13 0
-4 -9 -11 0
-8 13 14 0
2 -8 10 0
